--- Job procesadores.gms Start 04/09/24 15:58:12 46.3.0 cc87b1db WEX-WEI x86 64bit/MS Windows
--- Applying:
    D:\Apps\Gams\gmsprmNT.txt
--- GAMS Parameters defined
    Input D:\Biblioteca\Escritorio\Universidad\MOS\Procesadores\procesadores.gms
    PageSize 0
    ScrDir D:\Biblioteca\Escritorio\Universidad\MOS\Procesadores\225a\
    SysDir D:\Apps\Gams\
    LogOption 3
    ErrMsg 1
    ErrorLog 99
    IDE 1
    LstTitleLeftAligned 1
Licensee: GAMS Community License for Sebastian Murcia    G240125|0002AO-GEN
          Universidad de los Andes, Computer and Systems Engineering CL9328
          D:\Biblioteca\Documents\GAMS\gamslice.txt
          Sebastian Murcia, s.murciag@uniandes.edu.co                      
          Community license for demonstration and instructional purposes only
Processor information: 1 socket(s), 4 core(s), and 8 thread(s) available
GAMS 46.3.0   Copyright (C) 1987-2024 GAMS Development. All rights reserved
--- Starting compilation
--- procesadores.gms(35) 3 Mb
--- Starting execution: elapsed 0:00:00.081
--- procesadores.gms(31) 4 Mb
--- Generating LP model model1
--- procesadores.gms(32) 4 Mb
---   8 rows  13 columns  37 non-zeroes
--- Range statistics (absolute non-zero finite values)
--- RHS       [min, max] : [ 1.000E+02, 5.000E+02] - Zero values observed as well
--- Bound     [min, max] : [        NA,        NA] - Zero values observed as well
--- Matrix    [min, max] : [ 1.000E+00, 1.600E+01]
--- Executing CPLEX (Solvelink=2): elapsed 0:00:00.459

IBM ILOG CPLEX   46.3.0 cc87b1db Mar 19, 2024          WEI x86 64bit/MS Window

*** This solver runs with a community license. No commercial use.
--- GMO setup time: 0.00s
--- GMO memory 0.50 Mb (peak 0.50 Mb)
--- Dictionary memory 0.00 Mb
--- Cplex 22.1.1.0 link memory 0.00 Mb (peak 0.00 Mb)
--- Starting Cplex

Version identifier: 22.1.1.0 | 2022-11-27 | 9160aff4d
CPXPARAM_Advance                                 0
CPXPARAM_Simplex_Display                         2
CPXPARAM_MIP_Display                             4
CPXPARAM_MIP_Pool_Capacity                       0
CPXPARAM_MIP_Tolerances_AbsMIPGap                0
Tried aggregator 1 time.
LP Presolve eliminated 0 rows and 1 columns.
Reduced LP has 7 rows, 12 columns, and 24 nonzeros.
Presolve time = 0.05 sec. (0.01 ticks)
Initializing dual steep norms . . .

Iteration      Dual Objective            In Variable           Out Variable
     1            6700.000000               x(o2,d1)restriccionOferta slack
     2            7100.000000               x(o2,d4)restriccionOferta slack
     3            7300.000000               x(o2,d3)               x(o1,d1)

--- LP status (1): optimal.
--- Cplex Time: 0.09sec (det. 0.02 ticks)


Optimal solution found
Objective:         7300.000000

--- Reading solution for model model1
--- Executing after solve: elapsed 0:00:01.376
--- procesadores.gms(35) 4 Mb
*** Status: Normal completion
--- Job procesadores.gms Stop 04/09/24 15:58:14 elapsed 0:00:01.377
